# Solution for model GasLib-40
# Objective value = 1.0617294787774961e+01
loadshed[innode_1] 0
loadshed[innode_2] 0
loadshed[innode_3] 0
loadshed[innode_4] 0
loadshed[innode_5] 0
loadshed[innode_6] 0
loadshed[innode_7] 0
loadshed[innode_8] 0
loadshed[source_1] -2.9200418743839118e-01
loadshed[source_2] 5.9309905989285538e-02
loadshed[source_3] 2.9985397613103559e-01
loadshed[sink_1] 0
loadshed[sink_2] 0
loadshed[sink_3] 0
loadshed[sink_4] 0
loadshed[sink_5] 0
loadshed[sink_6] 0
loadshed[sink_7] 0
loadshed[sink_8] 0
loadshed[sink_9] 0
loadshed[sink_10] 0
loadshed[sink_11] 0
loadshed[sink_12] 6.4921038192764091e-01
loadshed[sink_13] 0
loadshed[sink_14] 0
loadshed[sink_15] 0
loadshed[sink_16] 0
loadshed[sink_17] 0
loadshed[sink_18] 0
loadshed[sink_19] 0
loadshed[sink_20] 0
loadshed[sink_21] 0
loadshed[sink_22] 0
loadshed[sink_23] 0
loadshed[sink_24] 0
loadshed[sink_25] 0
loadshed[sink_26] 0
loadshed[sink_27] 0
loadshed[sink_28] 0
loadshed[sink_29] 0
flow[source_1,sink_3] 2.0425330088218732e+02
flow[innode_1,sink_16] 1.6354166666666970e+01
flow[innode_6,sink_13] 3.7928872682288528e+00
flow[sink_13,sink_14] -1.2561279398437815e+01
flow[sink_14,sink_10] -2.8915446065104483e+01
flow[sink_25,sink_26] 1.7367040849769757e+02
flow[sink_26,sink_9] 1.2275624467778175e+02
flow[sink_9,sink_18] 1.0640207801111508e+02
flow[sink_26,sink_4] 3.4559997153249149e+01
flow[sink_4,sink_20] -2.8316463381194353e+01
flow[sink_18,sink_6] 9.0047911344448408e+01
flow[sink_25,innode_8] -1.7154496754885096e+02
flow[sink_6,sink_7] 4.0985411344447584e+01
flow[sink_6,sink_22] 3.2708333333333641e+01
flow[sink_7,sink_24] 3.8445205212225048e+01
flow[sink_22,sink_1] 1.6354166666666970e+01
flow[sink_24,sink_21] 2.2091038545558376e+01
flow[sink_21,sink_12] 5.7368718788917077e+00
flow[sink_7,sink_5] -1.3813960534443552e+01
flow[sink_5,sink_17] -3.0168127201110224e+01
flow[sink_17,sink_4] -4.6522293867776895e+01
flow[sink_17,sink_8] 0
flow[sink_3,sink_23] 16.3541666666697
flow[sink_8,sink_20] -1.6354166666668334e+01
flow[sink_25,sink_20] 6.1024796714529515e+01
flow[sink_25,sink_15] -8.3297291598272139e+01
flow[sink_15,sink_29] -9.9651458264938810e+01
flow[sink_29,sink_28] 1.6354166666667879e+01
flow[sink_29,sink_2] 1.6354166666684250e+01
flow[sink_2,sink_15] 0
flow[sink_29,innode_7] -1.4871395826495774e+02
flow[innode_4,sink_19] 94.3321127317715
flow[sink_19,innode_3] 3.8052908535039350e+01
flow[innode_4,innode_5] 1.6354166666679703e+01
flow[sink_27,innode_5] -1.6354166666679703e+01
flow[sink_27,sink_19] 0
flow[sink_10,sink_11] 3.2708333333333641e+01
flow[sink_10,innode_2] -3.9925037530065438e+01
flow[sink_10,innode_3] -3.8052908535039350e+01
flow[innode_6,sink_25] -3.7928872682288528e+00
flow[sink_11,innode_1] 1.6354166666666970e+01
flow[sink_19,innode_2] 3.9925037530065438e+01
flow[source_3,innode_4] 1.1068627939845121e+02
flow[source_2,innode_7] 1.4871395826495774e+02
flow[sink_3,innode_8] 1.7154496754885096e+02
pressure[innode_1] 7.4929711316769769e+01
pressure[innode_2] 7.7191615753642765e+01
pressure[innode_3] 7.7107351896716366e+01
pressure[innode_4] 81.01325
pressure[innode_5] 8.1002000741808772e+01
pressure[innode_6] 7.3712182701193271e+01
pressure[innode_7] 81.01325
pressure[innode_8] 8.0330509242739964e+01
pressure[source_1] 81.01325
pressure[source_2] 81.01325
pressure[source_3] 81.01325
pressure[sink_1] 4.5777830486238550e+01
pressure[sink_2] 76.6214647042109
pressure[sink_3] 8.0330509242739964e+01
pressure[sink_4] 5.7086630338345628e+01
pressure[sink_5] 5.3061394254245251e+01
pressure[sink_6] 4.7878908096625921e+01
pressure[sink_7] 4.7316276093301120e+01
pressure[sink_8] 5.8024402332770592e+01
pressure[sink_9] 5.4133399752563960e+01
pressure[sink_10] 7.5081412624373314e+01
pressure[sink_11] 7.4929711316769769e+01
pressure[sink_12] 1.0132499999999998e+00
pressure[sink_13] 7.3691273147533877e+01
pressure[sink_14] 7.3713752627001782e+01
pressure[sink_15] 7.4116255732144580e+01
pressure[sink_16] 7.3908061481952089e+01
pressure[sink_17] 5.5308701669241344e+01
pressure[sink_18] 5.0283455437388611e+01
pressure[sink_19] 7.7191615753642765e+01
pressure[sink_20] 5.9164057756358879e+01
pressure[sink_21] 3.0547429947306224e+00
pressure[sink_22] 4.6841599628593556e+01
pressure[sink_23] 8.0165791231080192e+01
pressure[sink_24] 3.29938072160001
pressure[sink_25] 7.3712182701193271e+01
pressure[sink_26] 6.1480677821675350e+01
pressure[sink_27] 8.0866291377726043e+01
pressure[sink_28] 7.6740451929057372e+01
pressure[sink_29] 7.7035734202674547e+01
interdiction[source_1,sink_3] 0
interdiction[innode_1,sink_16] 0
interdiction[innode_6,sink_13] 0
interdiction[sink_13,sink_14] 0
interdiction[sink_14,sink_10] 0
interdiction[sink_25,sink_26] 0
interdiction[sink_26,sink_9] 0
interdiction[sink_9,sink_18] 0
interdiction[sink_26,sink_4] 0
interdiction[sink_4,sink_20] 0
interdiction[sink_18,sink_6] 0
interdiction[sink_25,innode_8] 0
interdiction[sink_6,sink_7] 0
interdiction[sink_6,sink_22] 0
interdiction[sink_7,sink_24] 0
interdiction[sink_22,sink_1] 0
interdiction[sink_24,sink_21] 0
interdiction[sink_21,sink_12] 0
interdiction[sink_7,sink_5] 0
interdiction[sink_5,sink_17] 0
interdiction[sink_17,sink_4] 0
interdiction[sink_17,sink_8] 1
interdiction[sink_3,sink_23] 0
interdiction[sink_8,sink_20] 0
interdiction[sink_25,sink_20] 0
interdiction[sink_25,sink_15] 0
interdiction[sink_15,sink_29] 0
interdiction[sink_29,sink_28] 0
interdiction[sink_29,sink_2] 0
interdiction[sink_2,sink_15] 1
interdiction[sink_29,innode_7] 0
interdiction[innode_4,sink_19] 0
interdiction[sink_19,innode_3] 0
interdiction[innode_4,innode_5] 0
interdiction[sink_27,innode_5] 0
interdiction[sink_27,sink_19] 1
interdiction[sink_10,sink_11] 0
interdiction[sink_10,innode_2] 0
interdiction[sink_10,innode_3] 0
interdiction[innode_6,sink_25] 0
interdiction[sink_11,innode_1] 0
interdiction[sink_19,innode_2] 0
interdiction[source_3,innode_4] 0
interdiction[source_2,innode_7] 0
interdiction[sink_3,innode_8] 0
WCcheckFlow[source_1,sink_3] 39
WCcheckFlow[innode_1,sink_16] 1
WCcheckFlow[innode_6,sink_13] 13
WCcheckFlow[sink_13,sink_14] 12
WCcheckFlow[sink_14,sink_10] 11
WCcheckFlow[sink_25,sink_26] 15
WCcheckFlow[sink_26,sink_9] 11
WCcheckFlow[sink_9,sink_18] 10
WCcheckFlow[sink_26,sink_4] 3
WCcheckFlow[sink_4,sink_20] 2
WCcheckFlow[sink_18,sink_6] 9
WCcheckFlow[sink_25,innode_8] -36
WCcheckFlow[sink_6,sink_7] 6
WCcheckFlow[sink_6,sink_22] 2
WCcheckFlow[sink_7,sink_24] 3
WCcheckFlow[sink_22,sink_1] 1
WCcheckFlow[sink_24,sink_21] 2
WCcheckFlow[sink_21,sink_12] 1
WCcheckFlow[sink_7,sink_5] 2
WCcheckFlow[sink_5,sink_17] 1
WCcheckFlow[sink_17,sink_4] 0
WCcheckFlow[sink_17,sink_8] 0
WCcheckFlow[sink_3,sink_23] 1
WCcheckFlow[sink_8,sink_20] -1
WCcheckFlow[sink_25,sink_20] 0
WCcheckFlow[sink_25,sink_15] 6
WCcheckFlow[sink_15,sink_29] 5
WCcheckFlow[sink_29,sink_28] 1
WCcheckFlow[sink_29,sink_2] 1
WCcheckFlow[sink_2,sink_15] 0
WCcheckFlow[sink_29,innode_7] 2
WCcheckFlow[innode_4,sink_19] -4
WCcheckFlow[sink_19,innode_3] -5
WCcheckFlow[innode_4,innode_5] 2
WCcheckFlow[sink_27,innode_5] -1
WCcheckFlow[sink_27,sink_19] 0
WCcheckFlow[sink_10,sink_11] 3
WCcheckFlow[sink_10,innode_2] 1
WCcheckFlow[sink_10,innode_3] 6
WCcheckFlow[innode_6,sink_25] -14
WCcheckFlow[sink_11,innode_1] 2
WCcheckFlow[sink_19,innode_2] 0
WCcheckFlow[source_3,innode_4] -1
WCcheckFlow[source_2,innode_7] -1
WCcheckFlow[sink_3,innode_8] 37
